\ENCODING=ISO-8859-1
\Problem name: IloCplex

Minimize
 obj: 162 X_0_1 + 450 X_0_2 + 293 X_0_3 + 685 X_0_4 + 493 X_0_5 + 653 X_0_6
      + 216 X_0_7 + 723 X_0_8 + 499 X_0_9 + 267 X_0_10 + 627 X_0_11
      + 779 X_0_12 + 600 X_0_13 + 140 X_0_14 + 162 X_1_0 + 311 X_1_2
      + 438 X_1_3 + 707 X_1_4 + 335 X_1_5 + 601 X_1_6 + 328 X_1_7 + 793 X_1_8
      + 574 X_1_9 + 393 X_1_10 + 769 X_1_11 + 733 X_1_12 + 673 X_1_13
      + 178 X_1_14 + 450 X_2_0 + 311 X_2_1 + 654 X_2_3 + 649 X_2_4 + 120 X_2_5
      + 419 X_2_6 + 515 X_2_7 + 816 X_2_8 + 642 X_2_9 + 585 X_2_10 + 951 X_2_11
      + 544 X_2_12 + 718 X_2_13 + 487 X_2_14 + 293 X_3_0 + 438 X_3_1
      + 654 X_3_2 + 574 X_3_4 + 731 X_3_5 + 678 X_3_6 + 141 X_3_7 + 520 X_3_8
      + 317 X_3_9 + 79 X_3_10 + 334 X_3_11 + 777 X_3_12 + 404 X_3_13
      + 412 X_3_14 + 685 X_4_0 + 707 X_4_1 + 649 X_4_2 + 574 X_4_3 + 770 X_4_5
      + 308 X_4_6 + 506 X_4_7 + 232 X_4_8 + 268 X_4_9 + 512 X_4_10 + 629 X_4_11
      + 307 X_4_12 + 229 X_4_13 + 820 X_4_14 + 493 X_5_0 + 335 X_5_1
      + 120 X_5_2 + 731 X_5_3 + 770 X_5_4 + 533 X_5_6 + 597 X_5_7 + 933 X_5_8
      + 752 X_5_9 + 668 X_5_10 + 1042 X_5_11 + 654 X_5_12 + 832 X_5_13
      + 495 X_5_14 + 653 X_6_0 + 601 X_6_1 + 419 X_6_2 + 678 X_6_3 + 308 X_6_4
      + 533 X_6_5 + 557 X_6_7 + 533 X_6_8 + 466 X_6_9 + 600 X_6_10 + 853 X_6_11
      + 133 X_6_12 + 487 X_6_13 + 760 X_6_14 + 216 X_7_0 + 328 X_7_1
      + 515 X_7_2 + 141 X_7_3 + 506 X_7_4 + 597 X_7_5 + 557 X_7_6 + 511 X_7_8
      + 288 X_7_9 + 71 X_7_10 + 449 X_7_11 + 666 X_7_12 + 388 X_7_13
      + 355 X_7_14 + 723 X_8_0 + 793 X_8_1 + 816 X_8_2 + 520 X_8_3 + 232 X_8_4
      + 933 X_8_5 + 533 X_8_6 + 511 X_8_7 + 225 X_8_9 + 485 X_8_10 + 453 X_8_11
      + 539 X_8_12 + 124 X_8_13 + 863 X_8_14 + 499 X_9_0 + 574 X_9_1
      + 642 X_9_2 + 317 X_9_3 + 268 X_9_4 + 752 X_9_5 + 466 X_9_6 + 288 X_9_7
      + 225 X_9_8 + 269 X_9_10 + 388 X_9_11 + 527 X_9_12 + 101 X_9_13
      + 639 X_9_14 + 267 X_10_0 + 393 X_10_1 + 585 X_10_2 + 79 X_10_3
      + 512 X_10_4 + 668 X_10_5 + 600 X_10_6 + 71 X_10_7 + 485 X_10_8
      + 269 X_10_9 + 379 X_10_11 + 702 X_10_12 + 364 X_10_13 + 400 X_10_14
      + 627 X_11_0 + 769 X_11_1 + 951 X_11_2 + 334 X_11_3 + 629 X_11_4
      + 1042 X_11_5 + 853 X_11_6 + 449 X_11_7 + 453 X_11_8 + 388 X_11_9
      + 379 X_11_10 + 913 X_11_12 + 401 X_11_13 + 740 X_11_14 + 779 X_12_0
      + 733 X_12_1 + 544 X_12_2 + 777 X_12_3 + 307 X_12_4 + 654 X_12_5
      + 133 X_12_6 + 666 X_12_7 + 539 X_12_8 + 527 X_12_9 + 702 X_12_10
      + 913 X_12_11 + 523 X_12_13 + 890 X_12_14 + 600 X_13_0 + 673 X_13_1
      + 718 X_13_2 + 404 X_13_3 + 229 X_13_4 + 832 X_13_5 + 487 X_13_6
      + 388 X_13_7 + 124 X_13_8 + 101 X_13_9 + 364 X_13_10 + 401 X_13_11
      + 523 X_13_12 + 740 X_13_14 + 140 X_14_0 + 178 X_14_1 + 487 X_14_2
      + 412 X_14_3 + 820 X_14_4 + 495 X_14_5 + 760 X_14_6 + 355 X_14_7
      + 863 X_14_8 + 639 X_14_9 + 400 X_14_10 + 740 X_14_11 + 890 X_14_12
      + 740 X_14_13
Subject To
 c1:   X_0_1 + X_0_2 + X_0_3 + X_0_4 + X_0_5 + X_0_6 + X_0_7 + X_0_8 + X_0_9
       + X_0_10 + X_0_11 + X_0_12 + X_0_13 + X_0_14 <= 241
 c2:   X_1_0 + X_2_0 + X_3_0 + X_4_0 + X_5_0 + X_6_0 + X_7_0 + X_8_0 + X_9_0
       + X_10_0 + X_11_0 + X_12_0 + X_13_0 + X_14_0 <= 241
 c3:   X_0_1 + X_2_1 + X_3_1 + X_4_1 + X_5_1 + X_6_1 + X_7_1 + X_8_1 + X_9_1
       + X_10_1 + X_11_1 + X_12_1 + X_13_1 + X_14_1  = 1
 c4:   X_1_0 + X_1_2 + X_1_3 + X_1_4 + X_1_5 + X_1_6 + X_1_7 + X_1_8 + X_1_9
       + X_1_10 + X_1_11 + X_1_12 + X_1_13 + X_1_14  = 1
 c5:   X_0_2 + X_1_2 + X_3_2 + X_4_2 + X_5_2 + X_6_2 + X_7_2 + X_8_2 + X_9_2
       + X_10_2 + X_11_2 + X_12_2 + X_13_2 + X_14_2  = 1
 c6:   X_2_0 + X_2_1 + X_2_3 + X_2_4 + X_2_5 + X_2_6 + X_2_7 + X_2_8 + X_2_9
       + X_2_10 + X_2_11 + X_2_12 + X_2_13 + X_2_14  = 1
 c7:   X_0_3 + X_1_3 + X_2_3 + X_4_3 + X_5_3 + X_6_3 + X_7_3 + X_8_3 + X_9_3
       + X_10_3 + X_11_3 + X_12_3 + X_13_3 + X_14_3  = 1
 c8:   X_3_0 + X_3_1 + X_3_2 + X_3_4 + X_3_5 + X_3_6 + X_3_7 + X_3_8 + X_3_9
       + X_3_10 + X_3_11 + X_3_12 + X_3_13 + X_3_14  = 1
 c9:   X_0_4 + X_1_4 + X_2_4 + X_3_4 + X_5_4 + X_6_4 + X_7_4 + X_8_4 + X_9_4
       + X_10_4 + X_11_4 + X_12_4 + X_13_4 + X_14_4  = 1
 c10:  X_4_0 + X_4_1 + X_4_2 + X_4_3 + X_4_5 + X_4_6 + X_4_7 + X_4_8 + X_4_9
       + X_4_10 + X_4_11 + X_4_12 + X_4_13 + X_4_14  = 1
 c11:  X_0_5 + X_1_5 + X_2_5 + X_3_5 + X_4_5 + X_6_5 + X_7_5 + X_8_5 + X_9_5
       + X_10_5 + X_11_5 + X_12_5 + X_13_5 + X_14_5  = 1
 c12:  X_5_0 + X_5_1 + X_5_2 + X_5_3 + X_5_4 + X_5_6 + X_5_7 + X_5_8 + X_5_9
       + X_5_10 + X_5_11 + X_5_12 + X_5_13 + X_5_14  = 1
 c13:  X_0_6 + X_1_6 + X_2_6 + X_3_6 + X_4_6 + X_5_6 + X_7_6 + X_8_6 + X_9_6
       + X_10_6 + X_11_6 + X_12_6 + X_13_6 + X_14_6  = 1
 c14:  X_6_0 + X_6_1 + X_6_2 + X_6_3 + X_6_4 + X_6_5 + X_6_7 + X_6_8 + X_6_9
       + X_6_10 + X_6_11 + X_6_12 + X_6_13 + X_6_14  = 1
 c15:  X_0_7 + X_1_7 + X_2_7 + X_3_7 + X_4_7 + X_5_7 + X_6_7 + X_8_7 + X_9_7
       + X_10_7 + X_11_7 + X_12_7 + X_13_7 + X_14_7  = 1
 c16:  X_7_0 + X_7_1 + X_7_2 + X_7_3 + X_7_4 + X_7_5 + X_7_6 + X_7_8 + X_7_9
       + X_7_10 + X_7_11 + X_7_12 + X_7_13 + X_7_14  = 1
 c17:  X_0_8 + X_1_8 + X_2_8 + X_3_8 + X_4_8 + X_5_8 + X_6_8 + X_7_8 + X_9_8
       + X_10_8 + X_11_8 + X_12_8 + X_13_8 + X_14_8  = 1
 c18:  X_8_0 + X_8_1 + X_8_2 + X_8_3 + X_8_4 + X_8_5 + X_8_6 + X_8_7 + X_8_9
       + X_8_10 + X_8_11 + X_8_12 + X_8_13 + X_8_14  = 1
 c19:  X_0_9 + X_1_9 + X_2_9 + X_3_9 + X_4_9 + X_5_9 + X_6_9 + X_7_9 + X_8_9
       + X_10_9 + X_11_9 + X_12_9 + X_13_9 + X_14_9  = 1
 c20:  X_9_0 + X_9_1 + X_9_2 + X_9_3 + X_9_4 + X_9_5 + X_9_6 + X_9_7 + X_9_8
       + X_9_10 + X_9_11 + X_9_12 + X_9_13 + X_9_14  = 1
 c21:  X_0_10 + X_1_10 + X_2_10 + X_3_10 + X_4_10 + X_5_10 + X_6_10 + X_7_10
       + X_8_10 + X_9_10 + X_11_10 + X_12_10 + X_13_10 + X_14_10  = 1
 c22:  X_10_0 + X_10_1 + X_10_2 + X_10_3 + X_10_4 + X_10_5 + X_10_6 + X_10_7
       + X_10_8 + X_10_9 + X_10_11 + X_10_12 + X_10_13 + X_10_14  = 1
 c23:  X_0_11 + X_1_11 + X_2_11 + X_3_11 + X_4_11 + X_5_11 + X_6_11 + X_7_11
       + X_8_11 + X_9_11 + X_10_11 + X_12_11 + X_13_11 + X_14_11  = 1
 c24:  X_11_0 + X_11_1 + X_11_2 + X_11_3 + X_11_4 + X_11_5 + X_11_6 + X_11_7
       + X_11_8 + X_11_9 + X_11_10 + X_11_12 + X_11_13 + X_11_14  = 1
 c25:  X_0_12 + X_1_12 + X_2_12 + X_3_12 + X_4_12 + X_5_12 + X_6_12 + X_7_12
       + X_8_12 + X_9_12 + X_10_12 + X_11_12 + X_13_12 + X_14_12  = 1
 c26:  X_12_0 + X_12_1 + X_12_2 + X_12_3 + X_12_4 + X_12_5 + X_12_6 + X_12_7
       + X_12_8 + X_12_9 + X_12_10 + X_12_11 + X_12_13 + X_12_14  = 1
 c27:  X_0_13 + X_1_13 + X_2_13 + X_3_13 + X_4_13 + X_5_13 + X_6_13 + X_7_13
       + X_8_13 + X_9_13 + X_10_13 + X_11_13 + X_12_13 + X_14_13  = 1
 c28:  X_13_0 + X_13_1 + X_13_2 + X_13_3 + X_13_4 + X_13_5 + X_13_6 + X_13_7
       + X_13_8 + X_13_9 + X_13_10 + X_13_11 + X_13_12 + X_13_14  = 1
 c29:  X_0_14 + X_1_14 + X_2_14 + X_3_14 + X_4_14 + X_5_14 + X_6_14 + X_7_14
       + X_8_14 + X_9_14 + X_10_14 + X_11_14 + X_12_14 + X_13_14  = 1
 c30:  X_14_0 + X_14_1 + X_14_2 + X_14_3 + X_14_4 + X_14_5 + X_14_6 + X_14_7
       + X_14_8 + X_14_9 + X_14_10 + X_14_11 + X_14_12 + X_14_13  = 1
 c31:  251 X_1_1 <= 241
 c32:  - 251 X_1_2 + w_0 - w_1 >= -241
 c33:  - 251 X_1_3 + w_0 - w_2 >= -241
 c34:  - 251 X_1_4 + w_0 - w_3 >= -241
 c35:  - 251 X_1_5 + w_0 - w_4 >= -241
 c36:  - 251 X_1_6 + w_0 - w_5 >= -241
 c37:  - 251 X_1_7 + w_0 - w_6 >= -241
 c38:  - 251 X_1_8 + w_0 - w_7 >= -241
 c39:  - 251 X_1_9 + w_0 - w_8 >= -241
 c40:  - 251 X_1_10 + w_0 - w_9 >= -241
 c41:  - 251 X_1_11 + w_0 - w_10 >= -241
 c42:  - 251 X_1_12 + w_0 - w_11 >= -241
 c43:  - 251 X_1_13 + w_0 - w_12 >= -241
 c44:  - 251 X_1_14 + w_0 - w_13 >= -241
 c45:  - 251 X_2_1 - w_0 + w_1 >= -241
 c46:  251 X_2_2 <= 241
 c47:  - 251 X_2_3 + w_1 - w_2 >= -241
 c48:  - 251 X_2_4 + w_1 - w_3 >= -241
 c49:  - 251 X_2_5 + w_1 - w_4 >= -241
 c50:  - 251 X_2_6 + w_1 - w_5 >= -241
 c51:  - 251 X_2_7 + w_1 - w_6 >= -241
 c52:  - 251 X_2_8 + w_1 - w_7 >= -241
 c53:  - 251 X_2_9 + w_1 - w_8 >= -241
 c54:  - 251 X_2_10 + w_1 - w_9 >= -241
 c55:  - 251 X_2_11 + w_1 - w_10 >= -241
 c56:  - 251 X_2_12 + w_1 - w_11 >= -241
 c57:  - 251 X_2_13 + w_1 - w_12 >= -241
 c58:  - 251 X_2_14 + w_1 - w_13 >= -241
 c59:  - 251 X_3_1 - w_0 + w_2 >= -241
 c60:  - 251 X_3_2 - w_1 + w_2 >= -241
 c61:  251 X_3_3 <= 241
 c62:  - 251 X_3_4 + w_2 - w_3 >= -241
 c63:  - 251 X_3_5 + w_2 - w_4 >= -241
 c64:  - 251 X_3_6 + w_2 - w_5 >= -241
 c65:  - 251 X_3_7 + w_2 - w_6 >= -241
 c66:  - 251 X_3_8 + w_2 - w_7 >= -241
 c67:  - 251 X_3_9 + w_2 - w_8 >= -241
 c68:  - 251 X_3_10 + w_2 - w_9 >= -241
 c69:  - 251 X_3_11 + w_2 - w_10 >= -241
 c70:  - 251 X_3_12 + w_2 - w_11 >= -241
 c71:  - 251 X_3_13 + w_2 - w_12 >= -241
 c72:  - 251 X_3_14 + w_2 - w_13 >= -241
 c73:  - 251 X_4_1 - w_0 + w_3 >= -241
 c74:  - 251 X_4_2 - w_1 + w_3 >= -241
 c75:  - 251 X_4_3 - w_2 + w_3 >= -241
 c76:  251 X_4_4 <= 241
 c77:  - 251 X_4_5 + w_3 - w_4 >= -241
 c78:  - 251 X_4_6 + w_3 - w_5 >= -241
 c79:  - 251 X_4_7 + w_3 - w_6 >= -241
 c80:  - 251 X_4_8 + w_3 - w_7 >= -241
 c81:  - 251 X_4_9 + w_3 - w_8 >= -241
 c82:  - 251 X_4_10 + w_3 - w_9 >= -241
 c83:  - 251 X_4_11 + w_3 - w_10 >= -241
 c84:  - 251 X_4_12 + w_3 - w_11 >= -241
 c85:  - 251 X_4_13 + w_3 - w_12 >= -241
 c86:  - 251 X_4_14 + w_3 - w_13 >= -241
 c87:  - 251 X_5_1 - w_0 + w_4 >= -241
 c88:  - 251 X_5_2 - w_1 + w_4 >= -241
 c89:  - 251 X_5_3 - w_2 + w_4 >= -241
 c90:  - 251 X_5_4 - w_3 + w_4 >= -241
 c91:  251 X_5_5 <= 241
 c92:  - 251 X_5_6 + w_4 - w_5 >= -241
 c93:  - 251 X_5_7 + w_4 - w_6 >= -241
 c94:  - 251 X_5_8 + w_4 - w_7 >= -241
 c95:  - 251 X_5_9 + w_4 - w_8 >= -241
 c96:  - 251 X_5_10 + w_4 - w_9 >= -241
 c97:  - 251 X_5_11 + w_4 - w_10 >= -241
 c98:  - 251 X_5_12 + w_4 - w_11 >= -241
 c99:  - 251 X_5_13 + w_4 - w_12 >= -241
 c100: - 251 X_5_14 + w_4 - w_13 >= -241
 c101: - 241 X_6_1 - w_0 + w_5 >= -241
 c102: - 241 X_6_2 - w_1 + w_5 >= -241
 c103: - 241 X_6_3 - w_2 + w_5 >= -241
 c104: - 241 X_6_4 - w_3 + w_5 >= -241
 c105: - 241 X_6_5 - w_4 + w_5 >= -241
 c106: 241 X_6_6 <= 241
 c107: - 241 X_6_7 + w_5 - w_6 >= -241
 c108: - 241 X_6_8 + w_5 - w_7 >= -241
 c109: - 241 X_6_9 + w_5 - w_8 >= -241
 c110: - 241 X_6_10 + w_5 - w_9 >= -241
 c111: - 241 X_6_11 + w_5 - w_10 >= -241
 c112: - 241 X_6_12 + w_5 - w_11 >= -241
 c113: - 241 X_6_13 + w_5 - w_12 >= -241
 c114: - 241 X_6_14 + w_5 - w_13 >= -241
 c115: - 241 X_7_1 - w_0 + w_6 >= -241
 c116: - 241 X_7_2 - w_1 + w_6 >= -241
 c117: - 241 X_7_3 - w_2 + w_6 >= -241
 c118: - 241 X_7_4 - w_3 + w_6 >= -241
 c119: - 241 X_7_5 - w_4 + w_6 >= -241
 c120: - 241 X_7_6 - w_5 + w_6 >= -241
 c121: 241 X_7_7 <= 241
 c122: - 241 X_7_8 + w_6 - w_7 >= -241
 c123: - 241 X_7_9 + w_6 - w_8 >= -241
 c124: - 241 X_7_10 + w_6 - w_9 >= -241
 c125: - 241 X_7_11 + w_6 - w_10 >= -241
 c126: - 241 X_7_12 + w_6 - w_11 >= -241
 c127: - 241 X_7_13 + w_6 - w_12 >= -241
 c128: - 241 X_7_14 + w_6 - w_13 >= -241
 c129: - 256 X_8_1 - w_0 + w_7 >= -241
 c130: - 256 X_8_2 - w_1 + w_7 >= -241
 c131: - 256 X_8_3 - w_2 + w_7 >= -241
 c132: - 256 X_8_4 - w_3 + w_7 >= -241
 c133: - 256 X_8_5 - w_4 + w_7 >= -241
 c134: - 256 X_8_6 - w_5 + w_7 >= -241
 c135: - 256 X_8_7 - w_6 + w_7 >= -241
 c136: 256 X_8_8 <= 241
 c137: - 256 X_8_9 + w_7 - w_8 >= -241
 c138: - 256 X_8_10 + w_7 - w_9 >= -241
 c139: - 256 X_8_11 + w_7 - w_10 >= -241
 c140: - 256 X_8_12 + w_7 - w_11 >= -241
 c141: - 256 X_8_13 + w_7 - w_12 >= -241
 c142: - 256 X_8_14 + w_7 - w_13 >= -241
 c143: - 256 X_9_1 - w_0 + w_8 >= -241
 c144: - 256 X_9_2 - w_1 + w_8 >= -241
 c145: - 256 X_9_3 - w_2 + w_8 >= -241
 c146: - 256 X_9_4 - w_3 + w_8 >= -241
 c147: - 256 X_9_5 - w_4 + w_8 >= -241
 c148: - 256 X_9_6 - w_5 + w_8 >= -241
 c149: - 256 X_9_7 - w_6 + w_8 >= -241
 c150: - 256 X_9_8 - w_7 + w_8 >= -241
 c151: 256 X_9_9 <= 241
 c152: - 256 X_9_10 + w_8 - w_9 >= -241
 c153: - 256 X_9_11 + w_8 - w_10 >= -241
 c154: - 256 X_9_12 + w_8 - w_11 >= -241
 c155: - 256 X_9_13 + w_8 - w_12 >= -241
 c156: - 256 X_9_14 + w_8 - w_13 >= -241
 c157: - 256 X_10_1 - w_0 + w_9 >= -241
 c158: - 256 X_10_2 - w_1 + w_9 >= -241
 c159: - 256 X_10_3 - w_2 + w_9 >= -241
 c160: - 256 X_10_4 - w_3 + w_9 >= -241
 c161: - 256 X_10_5 - w_4 + w_9 >= -241
 c162: - 256 X_10_6 - w_5 + w_9 >= -241
 c163: - 256 X_10_7 - w_6 + w_9 >= -241
 c164: - 256 X_10_8 - w_7 + w_9 >= -241
 c165: - 256 X_10_9 - w_8 + w_9 >= -241
 c166: 256 X_10_10 <= 241
 c167: - 256 X_10_11 + w_9 - w_10 >= -241
 c168: - 256 X_10_12 + w_9 - w_11 >= -241
 c169: - 256 X_10_13 + w_9 - w_12 >= -241
 c170: - 256 X_10_14 + w_9 - w_13 >= -241
 c171: - 256 X_11_1 - w_0 + w_10 >= -241
 c172: - 256 X_11_2 - w_1 + w_10 >= -241
 c173: - 256 X_11_3 - w_2 + w_10 >= -241
 c174: - 256 X_11_4 - w_3 + w_10 >= -241
 c175: - 256 X_11_5 - w_4 + w_10 >= -241
 c176: - 256 X_11_6 - w_5 + w_10 >= -241
 c177: - 256 X_11_7 - w_6 + w_10 >= -241
 c178: - 256 X_11_8 - w_7 + w_10 >= -241
 c179: - 256 X_11_9 - w_8 + w_10 >= -241
 c180: - 256 X_11_10 - w_9 + w_10 >= -241
 c181: 256 X_11_11 <= 241
 c182: - 256 X_11_12 + w_10 - w_11 >= -241
 c183: - 256 X_11_13 + w_10 - w_12 >= -241
 c184: - 256 X_11_14 + w_10 - w_13 >= -241
 c185: - 256 X_12_1 - w_0 + w_11 >= -241
 c186: - 256 X_12_2 - w_1 + w_11 >= -241
 c187: - 256 X_12_3 - w_2 + w_11 >= -241
 c188: - 256 X_12_4 - w_3 + w_11 >= -241
 c189: - 256 X_12_5 - w_4 + w_11 >= -241
 c190: - 256 X_12_6 - w_5 + w_11 >= -241
 c191: - 256 X_12_7 - w_6 + w_11 >= -241
 c192: - 256 X_12_8 - w_7 + w_11 >= -241
 c193: - 256 X_12_9 - w_8 + w_11 >= -241
 c194: - 256 X_12_10 - w_9 + w_11 >= -241
 c195: - 256 X_12_11 - w_10 + w_11 >= -241
 c196: 256 X_12_12 <= 241
 c197: - 256 X_12_13 + w_11 - w_12 >= -241
 c198: - 256 X_12_14 + w_11 - w_13 >= -241
 c199: - 256 X_13_1 - w_0 + w_12 >= -241
 c200: - 256 X_13_2 - w_1 + w_12 >= -241
 c201: - 256 X_13_3 - w_2 + w_12 >= -241
 c202: - 256 X_13_4 - w_3 + w_12 >= -241
 c203: - 256 X_13_5 - w_4 + w_12 >= -241
 c204: - 256 X_13_6 - w_5 + w_12 >= -241
 c205: - 256 X_13_7 - w_6 + w_12 >= -241
 c206: - 256 X_13_8 - w_7 + w_12 >= -241
 c207: - 256 X_13_9 - w_8 + w_12 >= -241
 c208: - 256 X_13_10 - w_9 + w_12 >= -241
 c209: - 256 X_13_11 - w_10 + w_12 >= -241
 c210: - 256 X_13_12 - w_11 + w_12 >= -241
 c211: 256 X_13_13 <= 241
 c212: - 256 X_13_14 + w_12 - w_13 >= -241
 c213: - 241 X_14_1 - w_0 + w_13 >= -241
 c214: - 241 X_14_2 - w_1 + w_13 >= -241
 c215: - 241 X_14_3 - w_2 + w_13 >= -241
 c216: - 241 X_14_4 - w_3 + w_13 >= -241
 c217: - 241 X_14_5 - w_4 + w_13 >= -241
 c218: - 241 X_14_6 - w_5 + w_13 >= -241
 c219: - 241 X_14_7 - w_6 + w_13 >= -241
 c220: - 241 X_14_8 - w_7 + w_13 >= -241
 c221: - 241 X_14_9 - w_8 + w_13 >= -241
 c222: - 241 X_14_10 - w_9 + w_13 >= -241
 c223: - 241 X_14_11 - w_10 + w_13 >= -241
 c224: - 241 X_14_12 - w_11 + w_13 >= -241
 c225: - 241 X_14_13 - w_12 + w_13 >= -241
 c226: 241 X_14_14 <= 241
Bounds
 0 <= X_0_1 <= 1
 0 <= X_0_2 <= 1
 0 <= X_0_3 <= 1
 0 <= X_0_4 <= 1
 0 <= X_0_5 <= 1
 0 <= X_0_6 <= 1
 0 <= X_0_7 <= 1
 0 <= X_0_8 <= 1
 0 <= X_0_9 <= 1
 0 <= X_0_10 <= 1
 0 <= X_0_11 <= 1
 0 <= X_0_12 <= 1
 0 <= X_0_13 <= 1
 0 <= X_0_14 <= 1
 0 <= X_1_0 <= 1
 0 <= X_1_2 <= 1
 0 <= X_1_3 <= 1
 0 <= X_1_4 <= 1
 0 <= X_1_5 <= 1
 0 <= X_1_6 <= 1
 0 <= X_1_7 <= 1
 0 <= X_1_8 <= 1
 0 <= X_1_9 <= 1
 0 <= X_1_10 <= 1
 0 <= X_1_11 <= 1
 0 <= X_1_12 <= 1
 0 <= X_1_13 <= 1
 0 <= X_1_14 <= 1
 0 <= X_2_0 <= 1
 0 <= X_2_1 <= 1
 0 <= X_2_3 <= 1
 0 <= X_2_4 <= 1
 0 <= X_2_5 <= 1
 0 <= X_2_6 <= 1
 0 <= X_2_7 <= 1
 0 <= X_2_8 <= 1
 0 <= X_2_9 <= 1
 0 <= X_2_10 <= 1
 0 <= X_2_11 <= 1
 0 <= X_2_12 <= 1
 0 <= X_2_13 <= 1
 0 <= X_2_14 <= 1
 0 <= X_3_0 <= 1
 0 <= X_3_1 <= 1
 0 <= X_3_2 <= 1
 0 <= X_3_4 <= 1
 0 <= X_3_5 <= 1
 0 <= X_3_6 <= 1
 0 <= X_3_7 <= 1
 0 <= X_3_8 <= 1
 0 <= X_3_9 <= 1
 0 <= X_3_10 <= 1
 0 <= X_3_11 <= 1
 0 <= X_3_12 <= 1
 0 <= X_3_13 <= 1
 0 <= X_3_14 <= 1
 0 <= X_4_0 <= 1
 0 <= X_4_1 <= 1
 0 <= X_4_2 <= 1
 0 <= X_4_3 <= 1
 0 <= X_4_5 <= 1
 0 <= X_4_6 <= 1
 0 <= X_4_7 <= 1
 0 <= X_4_8 <= 1
 0 <= X_4_9 <= 1
 0 <= X_4_10 <= 1
 0 <= X_4_11 <= 1
 0 <= X_4_12 <= 1
 0 <= X_4_13 <= 1
 0 <= X_4_14 <= 1
 0 <= X_5_0 <= 1
 0 <= X_5_1 <= 1
 0 <= X_5_2 <= 1
 0 <= X_5_3 <= 1
 0 <= X_5_4 <= 1
 0 <= X_5_6 <= 1
 0 <= X_5_7 <= 1
 0 <= X_5_8 <= 1
 0 <= X_5_9 <= 1
 0 <= X_5_10 <= 1
 0 <= X_5_11 <= 1
 0 <= X_5_12 <= 1
 0 <= X_5_13 <= 1
 0 <= X_5_14 <= 1
 0 <= X_6_0 <= 1
 0 <= X_6_1 <= 1
 0 <= X_6_2 <= 1
 0 <= X_6_3 <= 1
 0 <= X_6_4 <= 1
 0 <= X_6_5 <= 1
 0 <= X_6_7 <= 1
 0 <= X_6_8 <= 1
 0 <= X_6_9 <= 1
 0 <= X_6_10 <= 1
 0 <= X_6_11 <= 1
 0 <= X_6_12 <= 1
 0 <= X_6_13 <= 1
 0 <= X_6_14 <= 1
 0 <= X_7_0 <= 1
 0 <= X_7_1 <= 1
 0 <= X_7_2 <= 1
 0 <= X_7_3 <= 1
 0 <= X_7_4 <= 1
 0 <= X_7_5 <= 1
 0 <= X_7_6 <= 1
 0 <= X_7_8 <= 1
 0 <= X_7_9 <= 1
 0 <= X_7_10 <= 1
 0 <= X_7_11 <= 1
 0 <= X_7_12 <= 1
 0 <= X_7_13 <= 1
 0 <= X_7_14 <= 1
 0 <= X_8_0 <= 1
 0 <= X_8_1 <= 1
 0 <= X_8_2 <= 1
 0 <= X_8_3 <= 1
 0 <= X_8_4 <= 1
 0 <= X_8_5 <= 1
 0 <= X_8_6 <= 1
 0 <= X_8_7 <= 1
 0 <= X_8_9 <= 1
 0 <= X_8_10 <= 1
 0 <= X_8_11 <= 1
 0 <= X_8_12 <= 1
 0 <= X_8_13 <= 1
 0 <= X_8_14 <= 1
 0 <= X_9_0 <= 1
 0 <= X_9_1 <= 1
 0 <= X_9_2 <= 1
 0 <= X_9_3 <= 1
 0 <= X_9_4 <= 1
 0 <= X_9_5 <= 1
 0 <= X_9_6 <= 1
 0 <= X_9_7 <= 1
 0 <= X_9_8 <= 1
 0 <= X_9_10 <= 1
 0 <= X_9_11 <= 1
 0 <= X_9_12 <= 1
 0 <= X_9_13 <= 1
 0 <= X_9_14 <= 1
 0 <= X_10_0 <= 1
 0 <= X_10_1 <= 1
 0 <= X_10_2 <= 1
 0 <= X_10_3 <= 1
 0 <= X_10_4 <= 1
 0 <= X_10_5 <= 1
 0 <= X_10_6 <= 1
 0 <= X_10_7 <= 1
 0 <= X_10_8 <= 1
 0 <= X_10_9 <= 1
 0 <= X_10_11 <= 1
 0 <= X_10_12 <= 1
 0 <= X_10_13 <= 1
 0 <= X_10_14 <= 1
 0 <= X_11_0 <= 1
 0 <= X_11_1 <= 1
 0 <= X_11_2 <= 1
 0 <= X_11_3 <= 1
 0 <= X_11_4 <= 1
 0 <= X_11_5 <= 1
 0 <= X_11_6 <= 1
 0 <= X_11_7 <= 1
 0 <= X_11_8 <= 1
 0 <= X_11_9 <= 1
 0 <= X_11_10 <= 1
 0 <= X_11_12 <= 1
 0 <= X_11_13 <= 1
 0 <= X_11_14 <= 1
 0 <= X_12_0 <= 1
 0 <= X_12_1 <= 1
 0 <= X_12_2 <= 1
 0 <= X_12_3 <= 1
 0 <= X_12_4 <= 1
 0 <= X_12_5 <= 1
 0 <= X_12_6 <= 1
 0 <= X_12_7 <= 1
 0 <= X_12_8 <= 1
 0 <= X_12_9 <= 1
 0 <= X_12_10 <= 1
 0 <= X_12_11 <= 1
 0 <= X_12_13 <= 1
 0 <= X_12_14 <= 1
 0 <= X_13_0 <= 1
 0 <= X_13_1 <= 1
 0 <= X_13_2 <= 1
 0 <= X_13_3 <= 1
 0 <= X_13_4 <= 1
 0 <= X_13_5 <= 1
 0 <= X_13_6 <= 1
 0 <= X_13_7 <= 1
 0 <= X_13_8 <= 1
 0 <= X_13_9 <= 1
 0 <= X_13_10 <= 1
 0 <= X_13_11 <= 1
 0 <= X_13_12 <= 1
 0 <= X_13_14 <= 1
 0 <= X_14_0 <= 1
 0 <= X_14_1 <= 1
 0 <= X_14_2 <= 1
 0 <= X_14_3 <= 1
 0 <= X_14_4 <= 1
 0 <= X_14_5 <= 1
 0 <= X_14_6 <= 1
 0 <= X_14_7 <= 1
 0 <= X_14_8 <= 1
 0 <= X_14_9 <= 1
 0 <= X_14_10 <= 1
 0 <= X_14_11 <= 1
 0 <= X_14_12 <= 1
 0 <= X_14_13 <= 1
 0 <= X_1_1 <= 1
 0 <= w_0 <= 241
 0 <= w_1 <= 241
 0 <= w_2 <= 241
 0 <= w_3 <= 241
 0 <= w_4 <= 241
 0 <= w_5 <= 241
 0 <= w_6 <= 241
 0 <= w_7 <= 241
 0 <= w_8 <= 241
 0 <= w_9 <= 241
 0 <= w_10 <= 241
 0 <= w_11 <= 241
 0 <= w_12 <= 241
 0 <= w_13 <= 241
 0 <= X_2_2 <= 1
 0 <= X_3_3 <= 1
 0 <= X_4_4 <= 1
 0 <= X_5_5 <= 1
 0 <= X_6_6 <= 1
 0 <= X_7_7 <= 1
 0 <= X_8_8 <= 1
 0 <= X_9_9 <= 1
 0 <= X_10_10 <= 1
 0 <= X_11_11 <= 1
 0 <= X_12_12 <= 1
 0 <= X_13_13 <= 1
 0 <= X_14_14 <= 1
Binaries
 X_0_1  X_0_2  X_0_3  X_0_4  X_0_5  X_0_6  X_0_7  X_0_8  X_0_9  X_0_10  X_0_11 
 X_0_12  X_0_13  X_0_14  X_1_0  X_1_2  X_1_3  X_1_4  X_1_5  X_1_6  X_1_7 
 X_1_8  X_1_9  X_1_10  X_1_11  X_1_12  X_1_13  X_1_14  X_2_0  X_2_1  X_2_3 
 X_2_4  X_2_5  X_2_6  X_2_7  X_2_8  X_2_9  X_2_10  X_2_11  X_2_12  X_2_13 
 X_2_14  X_3_0  X_3_1  X_3_2  X_3_4  X_3_5  X_3_6  X_3_7  X_3_8  X_3_9  X_3_10 
 X_3_11  X_3_12  X_3_13  X_3_14  X_4_0  X_4_1  X_4_2  X_4_3  X_4_5  X_4_6 
 X_4_7  X_4_8  X_4_9  X_4_10  X_4_11  X_4_12  X_4_13  X_4_14  X_5_0  X_5_1 
 X_5_2  X_5_3  X_5_4  X_5_6  X_5_7  X_5_8  X_5_9  X_5_10  X_5_11  X_5_12 
 X_5_13  X_5_14  X_6_0  X_6_1  X_6_2  X_6_3  X_6_4  X_6_5  X_6_7  X_6_8  X_6_9 
 X_6_10  X_6_11  X_6_12  X_6_13  X_6_14  X_7_0  X_7_1  X_7_2  X_7_3  X_7_4 
 X_7_5  X_7_6  X_7_8  X_7_9  X_7_10  X_7_11  X_7_12  X_7_13  X_7_14  X_8_0 
 X_8_1  X_8_2  X_8_3  X_8_4  X_8_5  X_8_6  X_8_7  X_8_9  X_8_10  X_8_11 
 X_8_12  X_8_13  X_8_14  X_9_0  X_9_1  X_9_2  X_9_3  X_9_4  X_9_5  X_9_6 
 X_9_7  X_9_8  X_9_10  X_9_11  X_9_12  X_9_13  X_9_14  X_10_0  X_10_1  X_10_2 
 X_10_3  X_10_4  X_10_5  X_10_6  X_10_7  X_10_8  X_10_9  X_10_11  X_10_12 
 X_10_13  X_10_14  X_11_0  X_11_1  X_11_2  X_11_3  X_11_4  X_11_5  X_11_6 
 X_11_7  X_11_8  X_11_9  X_11_10  X_11_12  X_11_13  X_11_14  X_12_0  X_12_1 
 X_12_2  X_12_3  X_12_4  X_12_5  X_12_6  X_12_7  X_12_8  X_12_9  X_12_10 
 X_12_11  X_12_13  X_12_14  X_13_0  X_13_1  X_13_2  X_13_3  X_13_4  X_13_5 
 X_13_6  X_13_7  X_13_8  X_13_9  X_13_10  X_13_11  X_13_12  X_13_14  X_14_0 
 X_14_1  X_14_2  X_14_3  X_14_4  X_14_5  X_14_6  X_14_7  X_14_8  X_14_9 
 X_14_10  X_14_11  X_14_12  X_14_13  X_1_1  X_2_2  X_3_3  X_4_4  X_5_5  X_6_6 
 X_7_7  X_8_8  X_9_9  X_10_10  X_11_11  X_12_12  X_13_13  X_14_14 
End
